c Arquivo convertido de bcsstm19.mtx
p edge 817 817
e 1 1
e 2 2
e 3 3
e 4 4
e 5 5
e 6 6
e 7 7
e 8 8
e 9 9
e 10 10
e 11 11
e 12 12
e 13 13
e 14 14
e 15 15
e 16 16
e 17 17
e 18 18
e 19 19
e 20 20
e 21 21
e 22 22
e 23 23
e 24 24
e 25 25
e 26 26
e 27 27
e 28 28
e 29 29
e 30 30
e 31 31
e 32 32
e 33 33
e 34 34
e 35 35
e 36 36
e 37 37
e 38 38
e 39 39
e 40 40
e 41 41
e 42 42
e 43 43
e 44 44
e 45 45
e 46 46
e 47 47
e 48 48
e 49 49
e 50 50
e 51 51
e 52 52
e 53 53
e 54 54
e 55 55
e 56 56
e 57 57
e 58 58
e 59 59
e 60 60
e 61 61
e 62 62
e 63 63
e 64 64
e 65 65
e 66 66
e 67 67
e 68 68
e 69 69
e 70 70
e 71 71
e 72 72
e 73 73
e 74 74
e 75 75
e 76 76
e 77 77
e 78 78
e 79 79
e 80 80
e 81 81
e 82 82
e 83 83
e 84 84
e 85 85
e 86 86
e 87 87
e 88 88
e 89 89
e 90 90
e 91 91
e 92 92
e 93 93
e 94 94
e 95 95
e 96 96
e 97 97
e 98 98
e 99 99
e 100 100
e 101 101
e 102 102
e 103 103
e 104 104
e 105 105
e 106 106
e 107 107
e 108 108
e 109 109
e 110 110
e 111 111
e 112 112
e 113 113
e 114 114
e 115 115
e 116 116
e 117 117
e 118 118
e 119 119
e 120 120
e 121 121
e 122 122
e 123 123
e 124 124
e 125 125
e 126 126
e 127 127
e 128 128
e 129 129
e 130 130
e 131 131
e 132 132
e 133 133
e 134 134
e 135 135
e 136 136
e 137 137
e 138 138
e 139 139
e 140 140
e 141 141
e 142 142
e 143 143
e 144 144
e 145 145
e 146 146
e 147 147
e 148 148
e 149 149
e 150 150
e 151 151
e 152 152
e 153 153
e 154 154
e 155 155
e 156 156
e 157 157
e 158 158
e 159 159
e 160 160
e 161 161
e 162 162
e 163 163
e 164 164
e 165 165
e 166 166
e 167 167
e 168 168
e 169 169
e 170 170
e 171 171
e 172 172
e 173 173
e 174 174
e 175 175
e 176 176
e 177 177
e 178 178
e 179 179
e 180 180
e 181 181
e 182 182
e 183 183
e 184 184
e 185 185
e 186 186
e 187 187
e 188 188
e 189 189
e 190 190
e 191 191
e 192 192
e 193 193
e 194 194
e 195 195
e 196 196
e 197 197
e 198 198
e 199 199
e 200 200
e 201 201
e 202 202
e 203 203
e 204 204
e 205 205
e 206 206
e 207 207
e 208 208
e 209 209
e 210 210
e 211 211
e 212 212
e 213 213
e 214 214
e 215 215
e 216 216
e 217 217
e 218 218
e 219 219
e 220 220
e 221 221
e 222 222
e 223 223
e 224 224
e 225 225
e 226 226
e 227 227
e 228 228
e 229 229
e 230 230
e 231 231
e 232 232
e 233 233
e 234 234
e 235 235
e 236 236
e 237 237
e 238 238
e 239 239
e 240 240
e 241 241
e 242 242
e 243 243
e 244 244
e 245 245
e 246 246
e 247 247
e 248 248
e 249 249
e 250 250
e 251 251
e 252 252
e 253 253
e 254 254
e 255 255
e 256 256
e 257 257
e 258 258
e 259 259
e 260 260
e 261 261
e 262 262
e 263 263
e 264 264
e 265 265
e 266 266
e 267 267
e 268 268
e 269 269
e 270 270
e 271 271
e 272 272
e 273 273
e 274 274
e 275 275
e 276 276
e 277 277
e 278 278
e 279 279
e 280 280
e 281 281
e 282 282
e 283 283
e 284 284
e 285 285
e 286 286
e 287 287
e 288 288
e 289 289
e 290 290
e 291 291
e 292 292
e 293 293
e 294 294
e 295 295
e 296 296
e 297 297
e 298 298
e 299 299
e 300 300
e 301 301
e 302 302
e 303 303
e 304 304
e 305 305
e 306 306
e 307 307
e 308 308
e 309 309
e 310 310
e 311 311
e 312 312
e 313 313
e 314 314
e 315 315
e 316 316
e 317 317
e 318 318
e 319 319
e 320 320
e 321 321
e 322 322
e 323 323
e 324 324
e 325 325
e 326 326
e 327 327
e 328 328
e 329 329
e 330 330
e 331 331
e 332 332
e 333 333
e 334 334
e 335 335
e 336 336
e 337 337
e 338 338
e 339 339
e 340 340
e 341 341
e 342 342
e 343 343
e 344 344
e 345 345
e 346 346
e 347 347
e 348 348
e 349 349
e 350 350
e 351 351
e 352 352
e 353 353
e 354 354
e 355 355
e 356 356
e 357 357
e 358 358
e 359 359
e 360 360
e 361 361
e 362 362
e 363 363
e 364 364
e 365 365
e 366 366
e 367 367
e 368 368
e 369 369
e 370 370
e 371 371
e 372 372
e 373 373
e 374 374
e 375 375
e 376 376
e 377 377
e 378 378
e 379 379
e 380 380
e 381 381
e 382 382
e 383 383
e 384 384
e 385 385
e 386 386
e 387 387
e 388 388
e 389 389
e 390 390
e 391 391
e 392 392
e 393 393
e 394 394
e 395 395
e 396 396
e 397 397
e 398 398
e 399 399
e 400 400
e 401 401
e 402 402
e 403 403
e 404 404
e 405 405
e 406 406
e 407 407
e 408 408
e 409 409
e 410 410
e 411 411
e 412 412
e 413 413
e 414 414
e 415 415
e 416 416
e 417 417
e 418 418
e 419 419
e 420 420
e 421 421
e 422 422
e 423 423
e 424 424
e 425 425
e 426 426
e 427 427
e 428 428
e 429 429
e 430 430
e 431 431
e 432 432
e 433 433
e 434 434
e 435 435
e 436 436
e 437 437
e 438 438
e 439 439
e 440 440
e 441 441
e 442 442
e 443 443
e 444 444
e 445 445
e 446 446
e 447 447
e 448 448
e 449 449
e 450 450
e 451 451
e 452 452
e 453 453
e 454 454
e 455 455
e 456 456
e 457 457
e 458 458
e 459 459
e 460 460
e 461 461
e 462 462
e 463 463
e 464 464
e 465 465
e 466 466
e 467 467
e 468 468
e 469 469
e 470 470
e 471 471
e 472 472
e 473 473
e 474 474
e 475 475
e 476 476
e 477 477
e 478 478
e 479 479
e 480 480
e 481 481
e 482 482
e 483 483
e 484 484
e 485 485
e 486 486
e 487 487
e 488 488
e 489 489
e 490 490
e 491 491
e 492 492
e 493 493
e 494 494
e 495 495
e 496 496
e 497 497
e 498 498
e 499 499
e 500 500
e 501 501
e 502 502
e 503 503
e 504 504
e 505 505
e 506 506
e 507 507
e 508 508
e 509 509
e 510 510
e 511 511
e 512 512
e 513 513
e 514 514
e 515 515
e 516 516
e 517 517
e 518 518
e 519 519
e 520 520
e 521 521
e 522 522
e 523 523
e 524 524
e 525 525
e 526 526
e 527 527
e 528 528
e 529 529
e 530 530
e 531 531
e 532 532
e 533 533
e 534 534
e 535 535
e 536 536
e 537 537
e 538 538
e 539 539
e 540 540
e 541 541
e 542 542
e 543 543
e 544 544
e 545 545
e 546 546
e 547 547
e 548 548
e 549 549
e 550 550
e 551 551
e 552 552
e 553 553
e 554 554
e 555 555
e 556 556
e 557 557
e 558 558
e 559 559
e 560 560
e 561 561
e 562 562
e 563 563
e 564 564
e 565 565
e 566 566
e 567 567
e 568 568
e 569 569
e 570 570
e 571 571
e 572 572
e 573 573
e 574 574
e 575 575
e 576 576
e 577 577
e 578 578
e 579 579
e 580 580
e 581 581
e 582 582
e 583 583
e 584 584
e 585 585
e 586 586
e 587 587
e 588 588
e 589 589
e 590 590
e 591 591
e 592 592
e 593 593
e 594 594
e 595 595
e 596 596
e 597 597
e 598 598
e 599 599
e 600 600
e 601 601
e 602 602
e 603 603
e 604 604
e 605 605
e 606 606
e 607 607
e 608 608
e 609 609
e 610 610
e 611 611
e 612 612
e 613 613
e 614 614
e 615 615
e 616 616
e 617 617
e 618 618
e 619 619
e 620 620
e 621 621
e 622 622
e 623 623
e 624 624
e 625 625
e 626 626
e 627 627
e 628 628
e 629 629
e 630 630
e 631 631
e 632 632
e 633 633
e 634 634
e 635 635
e 636 636
e 637 637
e 638 638
e 639 639
e 640 640
e 641 641
e 642 642
e 643 643
e 644 644
e 645 645
e 646 646
e 647 647
e 648 648
e 649 649
e 650 650
e 651 651
e 652 652
e 653 653
e 654 654
e 655 655
e 656 656
e 657 657
e 658 658
e 659 659
e 660 660
e 661 661
e 662 662
e 663 663
e 664 664
e 665 665
e 666 666
e 667 667
e 668 668
e 669 669
e 670 670
e 671 671
e 672 672
e 673 673
e 674 674
e 675 675
e 676 676
e 677 677
e 678 678
e 679 679
e 680 680
e 681 681
e 682 682
e 683 683
e 684 684
e 685 685
e 686 686
e 687 687
e 688 688
e 689 689
e 690 690
e 691 691
e 692 692
e 693 693
e 694 694
e 695 695
e 696 696
e 697 697
e 698 698
e 699 699
e 700 700
e 701 701
e 702 702
e 703 703
e 704 704
e 705 705
e 706 706
e 707 707
e 708 708
e 709 709
e 710 710
e 711 711
e 712 712
e 713 713
e 714 714
e 715 715
e 716 716
e 717 717
e 718 718
e 719 719
e 720 720
e 721 721
e 722 722
e 723 723
e 724 724
e 725 725
e 726 726
e 727 727
e 728 728
e 729 729
e 730 730
e 731 731
e 732 732
e 733 733
e 734 734
e 735 735
e 736 736
e 737 737
e 738 738
e 739 739
e 740 740
e 741 741
e 742 742
e 743 743
e 744 744
e 745 745
e 746 746
e 747 747
e 748 748
e 749 749
e 750 750
e 751 751
e 752 752
e 753 753
e 754 754
e 755 755
e 756 756
e 757 757
e 758 758
e 759 759
e 760 760
e 761 761
e 762 762
e 763 763
e 764 764
e 765 765
e 766 766
e 767 767
e 768 768
e 769 769
e 770 770
e 771 771
e 772 772
e 773 773
e 774 774
e 775 775
e 776 776
e 777 777
e 778 778
e 779 779
e 780 780
e 781 781
e 782 782
e 783 783
e 784 784
e 785 785
e 786 786
e 787 787
e 788 788
e 789 789
e 790 790
e 791 791
e 792 792
e 793 793
e 794 794
e 795 795
e 796 796
e 797 797
e 798 798
e 799 799
e 800 800
e 801 801
e 802 802
e 803 803
e 804 804
e 805 805
e 806 806
e 807 807
e 808 808
e 809 809
e 810 810
e 811 811
e 812 812
e 813 813
e 814 814
e 815 815
e 816 816
e 817 817
